&control
   prefix = 'slab'
   calculation = 'bands'
   restart_mode = 'from_scratch'
!   restart_mode = 'restart'
   wf_collect = .true.
!   tstress = .true.
!   tprnfor = .true.
   outdir = './'
   verbosity = 'high'
!   wfcdir = './outputs'
   pseudo_dir = '/home/nlqcheng/pseudo/'
   nstep = 2000
   etot_conv_thr=1.0D-5
   forc_conv_thr=1.0D-4
/
&system
   ibrav = 0
   nat = 4
   ntyp = 1
   nbnd = 101
   ecutwfc = 60.0
/
&electrons
   electron_maxstep = 200
   conv_thr = 1.0d-6
   mixing_mode = 'plain'
   mixing_beta = 0.2
!   mixing_ndim = 8
   diagonalization = 'david'
!   diago_david_ndim = 4
!   diago_full_acc = .true.
   startingpot = 'file'
/
&ions
      ion_dynamics='bfgs'
      upscale=100
/
ATOMIC_SPECIES
   C    12.011    C.upf

ATOMIC_POSITIONS {crystal}
C     0.499999805         0.333333343       0.246407353  
C     0.000000000         0.833333371       0.246407353  
C     0.499999903         0.000000000       0.246407353  
C     0.000000000         0.500000000       0.246407353  
CELL_PARAMETERS angstrom 
        2.4488213062         0.0000000000         0.0000000000
        0.0000000000         4.2414817810         0.0000000000
        0.0000000000         0.0000000000        23.6359004974

K_POINTS crystal
  288
  0.000000000  0.000000000  0.000000000   1.0
  0.000000000  0.083333333  0.000000000   1.0
  0.000000000  0.166666667  0.000000000   1.0
  0.000000000  0.250000000  0.000000000   1.0
  0.000000000  0.333333333  0.000000000   1.0
  0.000000000  0.416666667  0.000000000   1.0
  0.000000000  0.500000000  0.000000000   1.0
  0.000000000  0.583333333  0.000000000   1.0
  0.000000000  0.666666667  0.000000000   1.0
  0.000000000  0.750000000  0.000000000   1.0
  0.000000000  0.833333333  0.000000000   1.0
  0.000000000  0.916666667  0.000000000   1.0
  0.041666667  0.000000000  0.000000000   1.0
  0.041666667  0.083333333  0.000000000   1.0
  0.041666667  0.166666667  0.000000000   1.0
  0.041666667  0.250000000  0.000000000   1.0
  0.041666667  0.333333333  0.000000000   1.0
  0.041666667  0.416666667  0.000000000   1.0
  0.041666667  0.500000000  0.000000000   1.0
  0.041666667  0.583333333  0.000000000   1.0
  0.041666667  0.666666667  0.000000000   1.0
  0.041666667  0.750000000  0.000000000   1.0
  0.041666667  0.833333333  0.000000000   1.0
  0.041666667  0.916666667  0.000000000   1.0
  0.083333333  0.000000000  0.000000000   1.0
  0.083333333  0.083333333  0.000000000   1.0
  0.083333333  0.166666667  0.000000000   1.0
  0.083333333  0.250000000  0.000000000   1.0
  0.083333333  0.333333333  0.000000000   1.0
  0.083333333  0.416666667  0.000000000   1.0
  0.083333333  0.500000000  0.000000000   1.0
  0.083333333  0.583333333  0.000000000   1.0
  0.083333333  0.666666667  0.000000000   1.0
  0.083333333  0.750000000  0.000000000   1.0
  0.083333333  0.833333333  0.000000000   1.0
  0.083333333  0.916666667  0.000000000   1.0
  0.125000000  0.000000000  0.000000000   1.0
  0.125000000  0.083333333  0.000000000   1.0
  0.125000000  0.166666667  0.000000000   1.0
  0.125000000  0.250000000  0.000000000   1.0
  0.125000000  0.333333333  0.000000000   1.0
  0.125000000  0.416666667  0.000000000   1.0
  0.125000000  0.500000000  0.000000000   1.0
  0.125000000  0.583333333  0.000000000   1.0
  0.125000000  0.666666667  0.000000000   1.0
  0.125000000  0.750000000  0.000000000   1.0
  0.125000000  0.833333333  0.000000000   1.0
  0.125000000  0.916666667  0.000000000   1.0
  0.166666667  0.000000000  0.000000000   1.0
  0.166666667  0.083333333  0.000000000   1.0
  0.166666667  0.166666667  0.000000000   1.0
  0.166666667  0.250000000  0.000000000   1.0
  0.166666667  0.333333333  0.000000000   1.0
  0.166666667  0.416666667  0.000000000   1.0
  0.166666667  0.500000000  0.000000000   1.0
  0.166666667  0.583333333  0.000000000   1.0
  0.166666667  0.666666667  0.000000000   1.0
  0.166666667  0.750000000  0.000000000   1.0
  0.166666667  0.833333333  0.000000000   1.0
  0.166666667  0.916666667  0.000000000   1.0
  0.208333333  0.000000000  0.000000000   1.0
  0.208333333  0.083333333  0.000000000   1.0
  0.208333333  0.166666667  0.000000000   1.0
  0.208333333  0.250000000  0.000000000   1.0
  0.208333333  0.333333333  0.000000000   1.0
  0.208333333  0.416666667  0.000000000   1.0
  0.208333333  0.500000000  0.000000000   1.0
  0.208333333  0.583333333  0.000000000   1.0
  0.208333333  0.666666667  0.000000000   1.0
  0.208333333  0.750000000  0.000000000   1.0
  0.208333333  0.833333333  0.000000000   1.0
  0.208333333  0.916666667  0.000000000   1.0
  0.250000000  0.000000000  0.000000000   1.0
  0.250000000  0.083333333  0.000000000   1.0
  0.250000000  0.166666667  0.000000000   1.0
  0.250000000  0.250000000  0.000000000   1.0
  0.250000000  0.333333333  0.000000000   1.0
  0.250000000  0.416666667  0.000000000   1.0
  0.250000000  0.500000000  0.000000000   1.0
  0.250000000  0.583333333  0.000000000   1.0
  0.250000000  0.666666667  0.000000000   1.0
  0.250000000  0.750000000  0.000000000   1.0
  0.250000000  0.833333333  0.000000000   1.0
  0.250000000  0.916666667  0.000000000   1.0
  0.291666667  0.000000000  0.000000000   1.0
  0.291666667  0.083333333  0.000000000   1.0
  0.291666667  0.166666667  0.000000000   1.0
  0.291666667  0.250000000  0.000000000   1.0
  0.291666667  0.333333333  0.000000000   1.0
  0.291666667  0.416666667  0.000000000   1.0
  0.291666667  0.500000000  0.000000000   1.0
  0.291666667  0.583333333  0.000000000   1.0
  0.291666667  0.666666667  0.000000000   1.0
  0.291666667  0.750000000  0.000000000   1.0
  0.291666667  0.833333333  0.000000000   1.0
  0.291666667  0.916666667  0.000000000   1.0
  0.333333333  0.000000000  0.000000000   1.0
  0.333333333  0.083333333  0.000000000   1.0
  0.333333333  0.166666667  0.000000000   1.0
  0.333333333  0.250000000  0.000000000   1.0
  0.333333333  0.333333333  0.000000000   1.0
  0.333333333  0.416666667  0.000000000   1.0
  0.333333333  0.500000000  0.000000000   1.0
  0.333333333  0.583333333  0.000000000   1.0
  0.333333333  0.666666667  0.000000000   1.0
  0.333333333  0.750000000  0.000000000   1.0
  0.333333333  0.833333333  0.000000000   1.0
  0.333333333  0.916666667  0.000000000   1.0
  0.375000000  0.000000000  0.000000000   1.0
  0.375000000  0.083333333  0.000000000   1.0
  0.375000000  0.166666667  0.000000000   1.0
  0.375000000  0.250000000  0.000000000   1.0
  0.375000000  0.333333333  0.000000000   1.0
  0.375000000  0.416666667  0.000000000   1.0
  0.375000000  0.500000000  0.000000000   1.0
  0.375000000  0.583333333  0.000000000   1.0
  0.375000000  0.666666667  0.000000000   1.0
  0.375000000  0.750000000  0.000000000   1.0
  0.375000000  0.833333333  0.000000000   1.0
  0.375000000  0.916666667  0.000000000   1.0
  0.416666667  0.000000000  0.000000000   1.0
  0.416666667  0.083333333  0.000000000   1.0
  0.416666667  0.166666667  0.000000000   1.0
  0.416666667  0.250000000  0.000000000   1.0
  0.416666667  0.333333333  0.000000000   1.0
  0.416666667  0.416666667  0.000000000   1.0
  0.416666667  0.500000000  0.000000000   1.0
  0.416666667  0.583333333  0.000000000   1.0
  0.416666667  0.666666667  0.000000000   1.0
  0.416666667  0.750000000  0.000000000   1.0
  0.416666667  0.833333333  0.000000000   1.0
  0.416666667  0.916666667  0.000000000   1.0
  0.458333333  0.000000000  0.000000000   1.0
  0.458333333  0.083333333  0.000000000   1.0
  0.458333333  0.166666667  0.000000000   1.0
  0.458333333  0.250000000  0.000000000   1.0
  0.458333333  0.333333333  0.000000000   1.0
  0.458333333  0.416666667  0.000000000   1.0
  0.458333333  0.500000000  0.000000000   1.0
  0.458333333  0.583333333  0.000000000   1.0
  0.458333333  0.666666667  0.000000000   1.0
  0.458333333  0.750000000  0.000000000   1.0
  0.458333333  0.833333333  0.000000000   1.0
  0.458333333  0.916666667  0.000000000   1.0
  0.500000000  0.000000000  0.000000000   1.0
  0.500000000  0.083333333  0.000000000   1.0
  0.500000000  0.166666667  0.000000000   1.0
  0.500000000  0.250000000  0.000000000   1.0
  0.500000000  0.333333333  0.000000000   1.0
  0.500000000  0.416666667  0.000000000   1.0
  0.500000000  0.500000000  0.000000000   1.0
  0.500000000  0.583333333  0.000000000   1.0
  0.500000000  0.666666667  0.000000000   1.0
  0.500000000  0.750000000  0.000000000   1.0
  0.500000000  0.833333333  0.000000000   1.0
  0.500000000  0.916666667  0.000000000   1.0
  0.541666667  0.000000000  0.000000000   1.0
  0.541666667  0.083333333  0.000000000   1.0
  0.541666667  0.166666667  0.000000000   1.0
  0.541666667  0.250000000  0.000000000   1.0
  0.541666667  0.333333333  0.000000000   1.0
  0.541666667  0.416666667  0.000000000   1.0
  0.541666667  0.500000000  0.000000000   1.0
  0.541666667  0.583333333  0.000000000   1.0
  0.541666667  0.666666667  0.000000000   1.0
  0.541666667  0.750000000  0.000000000   1.0
  0.541666667  0.833333333  0.000000000   1.0
  0.541666667  0.916666667  0.000000000   1.0
  0.583333333  0.000000000  0.000000000   1.0
  0.583333333  0.083333333  0.000000000   1.0
  0.583333333  0.166666667  0.000000000   1.0
  0.583333333  0.250000000  0.000000000   1.0
  0.583333333  0.333333333  0.000000000   1.0
  0.583333333  0.416666667  0.000000000   1.0
  0.583333333  0.500000000  0.000000000   1.0
  0.583333333  0.583333333  0.000000000   1.0
  0.583333333  0.666666667  0.000000000   1.0
  0.583333333  0.750000000  0.000000000   1.0
  0.583333333  0.833333333  0.000000000   1.0
  0.583333333  0.916666667  0.000000000   1.0
  0.625000000  0.000000000  0.000000000   1.0
  0.625000000  0.083333333  0.000000000   1.0
  0.625000000  0.166666667  0.000000000   1.0
  0.625000000  0.250000000  0.000000000   1.0
  0.625000000  0.333333333  0.000000000   1.0
  0.625000000  0.416666667  0.000000000   1.0
  0.625000000  0.500000000  0.000000000   1.0
  0.625000000  0.583333333  0.000000000   1.0
  0.625000000  0.666666667  0.000000000   1.0
  0.625000000  0.750000000  0.000000000   1.0
  0.625000000  0.833333333  0.000000000   1.0
  0.625000000  0.916666667  0.000000000   1.0
  0.666666667  0.000000000  0.000000000   1.0
  0.666666667  0.083333333  0.000000000   1.0
  0.666666667  0.166666667  0.000000000   1.0
  0.666666667  0.250000000  0.000000000   1.0
  0.666666667  0.333333333  0.000000000   1.0
  0.666666667  0.416666667  0.000000000   1.0
  0.666666667  0.500000000  0.000000000   1.0
  0.666666667  0.583333333  0.000000000   1.0
  0.666666667  0.666666667  0.000000000   1.0
  0.666666667  0.750000000  0.000000000   1.0
  0.666666667  0.833333333  0.000000000   1.0
  0.666666667  0.916666667  0.000000000   1.0
  0.708333333  0.000000000  0.000000000   1.0
  0.708333333  0.083333333  0.000000000   1.0
  0.708333333  0.166666667  0.000000000   1.0
  0.708333333  0.250000000  0.000000000   1.0
  0.708333333  0.333333333  0.000000000   1.0
  0.708333333  0.416666667  0.000000000   1.0
  0.708333333  0.500000000  0.000000000   1.0
  0.708333333  0.583333333  0.000000000   1.0
  0.708333333  0.666666667  0.000000000   1.0
  0.708333333  0.750000000  0.000000000   1.0
  0.708333333  0.833333333  0.000000000   1.0
  0.708333333  0.916666667  0.000000000   1.0
  0.750000000  0.000000000  0.000000000   1.0
  0.750000000  0.083333333  0.000000000   1.0
  0.750000000  0.166666667  0.000000000   1.0
  0.750000000  0.250000000  0.000000000   1.0
  0.750000000  0.333333333  0.000000000   1.0
  0.750000000  0.416666667  0.000000000   1.0
  0.750000000  0.500000000  0.000000000   1.0
  0.750000000  0.583333333  0.000000000   1.0
  0.750000000  0.666666667  0.000000000   1.0
  0.750000000  0.750000000  0.000000000   1.0
  0.750000000  0.833333333  0.000000000   1.0
  0.750000000  0.916666667  0.000000000   1.0
  0.791666667  0.000000000  0.000000000   1.0
  0.791666667  0.083333333  0.000000000   1.0
  0.791666667  0.166666667  0.000000000   1.0
  0.791666667  0.250000000  0.000000000   1.0
  0.791666667  0.333333333  0.000000000   1.0
  0.791666667  0.416666667  0.000000000   1.0
  0.791666667  0.500000000  0.000000000   1.0
  0.791666667  0.583333333  0.000000000   1.0
  0.791666667  0.666666667  0.000000000   1.0
  0.791666667  0.750000000  0.000000000   1.0
  0.791666667  0.833333333  0.000000000   1.0
  0.791666667  0.916666667  0.000000000   1.0
  0.833333333  0.000000000  0.000000000   1.0
  0.833333333  0.083333333  0.000000000   1.0
  0.833333333  0.166666667  0.000000000   1.0
  0.833333333  0.250000000  0.000000000   1.0
  0.833333333  0.333333333  0.000000000   1.0
  0.833333333  0.416666667  0.000000000   1.0
  0.833333333  0.500000000  0.000000000   1.0
  0.833333333  0.583333333  0.000000000   1.0
  0.833333333  0.666666667  0.000000000   1.0
  0.833333333  0.750000000  0.000000000   1.0
  0.833333333  0.833333333  0.000000000   1.0
  0.833333333  0.916666667  0.000000000   1.0
  0.875000000  0.000000000  0.000000000   1.0
  0.875000000  0.083333333  0.000000000   1.0
  0.875000000  0.166666667  0.000000000   1.0
  0.875000000  0.250000000  0.000000000   1.0
  0.875000000  0.333333333  0.000000000   1.0
  0.875000000  0.416666667  0.000000000   1.0
  0.875000000  0.500000000  0.000000000   1.0
  0.875000000  0.583333333  0.000000000   1.0
  0.875000000  0.666666667  0.000000000   1.0
  0.875000000  0.750000000  0.000000000   1.0
  0.875000000  0.833333333  0.000000000   1.0
  0.875000000  0.916666667  0.000000000   1.0
  0.916666667  0.000000000  0.000000000   1.0
  0.916666667  0.083333333  0.000000000   1.0
  0.916666667  0.166666667  0.000000000   1.0
  0.916666667  0.250000000  0.000000000   1.0
  0.916666667  0.333333333  0.000000000   1.0
  0.916666667  0.416666667  0.000000000   1.0
  0.916666667  0.500000000  0.000000000   1.0
  0.916666667  0.583333333  0.000000000   1.0
  0.916666667  0.666666667  0.000000000   1.0
  0.916666667  0.750000000  0.000000000   1.0
  0.916666667  0.833333333  0.000000000   1.0
  0.916666667  0.916666667  0.000000000   1.0
  0.958333333  0.000000000  0.000000000   1.0
  0.958333333  0.083333333  0.000000000   1.0
  0.958333333  0.166666667  0.000000000   1.0
  0.958333333  0.250000000  0.000000000   1.0
  0.958333333  0.333333333  0.000000000   1.0
  0.958333333  0.416666667  0.000000000   1.0
  0.958333333  0.500000000  0.000000000   1.0
  0.958333333  0.583333333  0.000000000   1.0
  0.958333333  0.666666667  0.000000000   1.0
  0.958333333  0.750000000  0.000000000   1.0
  0.958333333  0.833333333  0.000000000   1.0
  0.958333333  0.916666667  0.000000000   1.0
