&control
   prefix = 'slab'
   calculation = 'bands'
   verbosity = 'high'
   restart_mode = 'from_scratch'
   wf_collect = .true.
   tstress = .false.
   tprnfor = .false.
   outdir = './'
   pseudo_dir = './'
/
&system
  ibrav = 0
  nat = 3
  ntyp = 2
  nosym = .true.
  nbnd = 720
  ecutwfc = 60 
/
&electrons
  conv_thr = 1.d-8
  mixing_beta = 0.7d0
  diagonalization = 'david'
/
ATOMIC_SPECIES
  S  32.06     S.UPF
  Mo 95.95    Mo.UPF
ATOMIC_POSITIONS angstrom
S       1.581249254     0.912934683     7.642944200
Mo      0.000000000     1.825869366     9.209626859
S       1.581249254     0.912934683     10.776299039
CELL_PARAMETERS angstrom
3.162498512     0.000000000     0.000000000
-1.581249256    2.738804051     0.000000000
0.000000000     0.000000000     21.383354839

K_POINTS crystal
  324
  0.000000000  0.000000000  0.000000000   1.0
  0.000000000  0.055555556  0.000000000   1.0
  0.000000000  0.111111111  0.000000000   1.0
  0.000000000  0.166666667  0.000000000   1.0
  0.000000000  0.222222222  0.000000000   1.0
  0.000000000  0.277777778  0.000000000   1.0
  0.000000000  0.333333333  0.000000000   1.0
  0.000000000  0.388888889  0.000000000   1.0
  0.000000000  0.444444444  0.000000000   1.0
  0.000000000  0.500000000  0.000000000   1.0
  0.000000000  0.555555556  0.000000000   1.0
  0.000000000  0.611111111  0.000000000   1.0
  0.000000000  0.666666667  0.000000000   1.0
  0.000000000  0.722222222  0.000000000   1.0
    0.000000000  0.777777778  0.000000000   1.0
  0.000000000  0.833333333  0.000000000   1.0
  0.000000000  0.888888889  0.000000000   1.0
  0.000000000  0.944444444  0.000000000   1.0
  0.055555556  0.000000000  0.000000000   1.0
  0.055555556  0.055555556  0.000000000   1.0
  0.055555556  0.111111111  0.000000000   1.0
  0.055555556  0.166666667  0.000000000   1.0
  0.055555556  0.222222222  0.000000000   1.0
  0.055555556  0.277777778  0.000000000   1.0
  0.055555556  0.333333333  0.000000000   1.0
  0.055555556  0.388888889  0.000000000   1.0
  0.055555556  0.444444444  0.000000000   1.0
  0.055555556  0.500000000  0.000000000   1.0
  0.055555556  0.555555556  0.000000000   1.0
  0.055555556  0.611111111  0.000000000   1.0
  0.055555556  0.666666667  0.000000000   1.0
  0.055555556  0.722222222  0.000000000   1.0
  0.055555556  0.777777778  0.000000000   1.0
  0.055555556  0.833333333  0.000000000   1.0
  0.055555556  0.888888889  0.000000000   1.0
  0.055555556  0.944444444  0.000000000   1.0
  0.111111111  0.000000000  0.000000000   1.0
  0.111111111  0.055555556  0.000000000   1.0
  0.111111111  0.111111111  0.000000000   1.0
  0.111111111  0.166666667  0.000000000   1.0
  0.111111111  0.222222222  0.000000000   1.0
  0.111111111  0.277777778  0.000000000   1.0
  0.111111111  0.333333333  0.000000000   1.0
  0.111111111  0.388888889  0.000000000   1.0
  0.111111111  0.444444444  0.000000000   1.0
  0.111111111  0.500000000  0.000000000   1.0
  0.111111111  0.555555556  0.000000000   1.0
  0.111111111  0.611111111  0.000000000   1.0
  0.111111111  0.666666667  0.000000000   1.0
  0.111111111  0.722222222  0.000000000   1.0
  0.111111111  0.777777778  0.000000000   1.0
  0.111111111  0.833333333  0.000000000   1.0
  0.111111111  0.888888889  0.000000000   1.0
  0.111111111  0.944444444  0.000000000   1.0
  0.166666667  0.000000000  0.000000000   1.0
  0.166666667  0.055555556  0.000000000   1.0
  0.166666667  0.111111111  0.000000000   1.0
  0.166666667  0.166666667  0.000000000   1.0
  0.166666667  0.222222222  0.000000000   1.0
  0.166666667  0.277777778  0.000000000   1.0
  0.166666667  0.333333333  0.000000000   1.0
  0.166666667  0.388888889  0.000000000   1.0
  0.166666667  0.444444444  0.000000000   1.0
  0.166666667  0.500000000  0.000000000   1.0
  0.166666667  0.555555556  0.000000000   1.0
  0.166666667  0.611111111  0.000000000   1.0
  0.166666667  0.666666667  0.000000000   1.0
  0.166666667  0.722222222  0.000000000   1.0
  0.166666667  0.777777778  0.000000000   1.0
  0.166666667  0.833333333  0.000000000   1.0
  0.166666667  0.888888889  0.000000000   1.0
  0.166666667  0.944444444  0.000000000   1.0
  0.222222222  0.000000000  0.000000000   1.0
  0.222222222  0.055555556  0.000000000   1.0
  0.222222222  0.111111111  0.000000000   1.0
  0.222222222  0.166666667  0.000000000   1.0
  0.222222222  0.222222222  0.000000000   1.0
  0.222222222  0.277777778  0.000000000   1.0
  0.222222222  0.333333333  0.000000000   1.0
  0.222222222  0.388888889  0.000000000   1.0
  0.222222222  0.444444444  0.000000000   1.0
  0.222222222  0.500000000  0.000000000   1.0
  0.222222222  0.555555556  0.000000000   1.0
  0.222222222  0.611111111  0.000000000   1.0
  0.222222222  0.666666667  0.000000000   1.0
  0.222222222  0.722222222  0.000000000   1.0
  0.222222222  0.777777778  0.000000000   1.0
  0.222222222  0.833333333  0.000000000   1.0
  0.222222222  0.888888889  0.000000000   1.0
  0.222222222  0.944444444  0.000000000   1.0
  0.277777778  0.000000000  0.000000000   1.0
  0.277777778  0.055555556  0.000000000   1.0
  0.277777778  0.111111111  0.000000000   1.0
  0.277777778  0.166666667  0.000000000   1.0
  0.277777778  0.222222222  0.000000000   1.0
  0.277777778  0.277777778  0.000000000   1.0
  0.277777778  0.333333333  0.000000000   1.0
  0.277777778  0.388888889  0.000000000   1.0
  0.277777778  0.444444444  0.000000000   1.0
  0.277777778  0.500000000  0.000000000   1.0
  0.277777778  0.555555556  0.000000000   1.0
  0.277777778  0.611111111  0.000000000   1.0
  0.277777778  0.666666667  0.000000000   1.0
  0.277777778  0.722222222  0.000000000   1.0
  0.277777778  0.777777778  0.000000000   1.0
  0.277777778  0.833333333  0.000000000   1.0
  0.277777778  0.888888889  0.000000000   1.0
  0.277777778  0.944444444  0.000000000   1.0
  0.333333333  0.000000000  0.000000000   1.0
  0.333333333  0.055555556  0.000000000   1.0
  0.333333333  0.111111111  0.000000000   1.0
  0.333333333  0.166666667  0.000000000   1.0
  0.333333333  0.222222222  0.000000000   1.0
  0.333333333  0.277777778  0.000000000   1.0
  0.333333333  0.333333333  0.000000000   1.0
  0.333333333  0.388888889  0.000000000   1.0
  0.333333333  0.444444444  0.000000000   1.0
  0.333333333  0.500000000  0.000000000   1.0
  0.333333333  0.555555556  0.000000000   1.0
  0.333333333  0.611111111  0.000000000   1.0
  0.333333333  0.666666667  0.000000000   1.0
  0.333333333  0.722222222  0.000000000   1.0
  0.333333333  0.777777778  0.000000000   1.0
  0.333333333  0.833333333  0.000000000   1.0
  0.333333333  0.888888889  0.000000000   1.0
  0.333333333  0.944444444  0.000000000   1.0
  0.388888889  0.000000000  0.000000000   1.0
  0.388888889  0.055555556  0.000000000   1.0
  0.388888889  0.111111111  0.000000000   1.0
  0.388888889  0.166666667  0.000000000   1.0
  0.388888889  0.222222222  0.000000000   1.0
  0.388888889  0.277777778  0.000000000   1.0
  0.388888889  0.333333333  0.000000000   1.0
  0.388888889  0.388888889  0.000000000   1.0
  0.388888889  0.444444444  0.000000000   1.0
  0.388888889  0.500000000  0.000000000   1.0
  0.388888889  0.555555556  0.000000000   1.0
  0.388888889  0.611111111  0.000000000   1.0
  0.388888889  0.666666667  0.000000000   1.0
  0.388888889  0.722222222  0.000000000   1.0
  0.388888889  0.777777778  0.000000000   1.0
  0.388888889  0.833333333  0.000000000   1.0
  0.388888889  0.888888889  0.000000000   1.0
  0.388888889  0.944444444  0.000000000   1.0
  0.444444444  0.000000000  0.000000000   1.0
  0.444444444  0.055555556  0.000000000   1.0
  0.444444444  0.111111111  0.000000000   1.0
  0.444444444  0.166666667  0.000000000   1.0
  0.444444444  0.222222222  0.000000000   1.0
  0.444444444  0.277777778  0.000000000   1.0
  0.444444444  0.333333333  0.000000000   1.0
  0.444444444  0.388888889  0.000000000   1.0
  0.444444444  0.444444444  0.000000000   1.0
  0.444444444  0.500000000  0.000000000   1.0
  0.444444444  0.555555556  0.000000000   1.0
  0.444444444  0.611111111  0.000000000   1.0
  0.444444444  0.666666667  0.000000000   1.0
  0.444444444  0.722222222  0.000000000   1.0
  0.444444444  0.777777778  0.000000000   1.0
  0.444444444  0.833333333  0.000000000   1.0
  0.444444444  0.888888889  0.000000000   1.0
  0.444444444  0.944444444  0.000000000   1.0
  0.500000000  0.000000000  0.000000000   1.0
  0.500000000  0.055555556  0.000000000   1.0
  0.500000000  0.111111111  0.000000000   1.0
  0.500000000  0.166666667  0.000000000   1.0
  0.500000000  0.222222222  0.000000000   1.0
  0.500000000  0.277777778  0.000000000   1.0
  0.500000000  0.333333333  0.000000000   1.0
  0.500000000  0.388888889  0.000000000   1.0
  0.500000000  0.444444444  0.000000000   1.0
  0.500000000  0.500000000  0.000000000   1.0
  0.500000000  0.555555556  0.000000000   1.0
  0.500000000  0.611111111  0.000000000   1.0
  0.500000000  0.666666667  0.000000000   1.0
  0.500000000  0.722222222  0.000000000   1.0
  0.500000000  0.777777778  0.000000000   1.0
  0.500000000  0.833333333  0.000000000   1.0
  0.500000000  0.888888889  0.000000000   1.0
  0.500000000  0.944444444  0.000000000   1.0
  0.555555556  0.000000000  0.000000000   1.0
  0.555555556  0.055555556  0.000000000   1.0
  0.555555556  0.111111111  0.000000000   1.0
  0.555555556  0.166666667  0.000000000   1.0
  0.555555556  0.222222222  0.000000000   1.0
  0.555555556  0.277777778  0.000000000   1.0
  0.555555556  0.333333333  0.000000000   1.0
  0.555555556  0.388888889  0.000000000   1.0
  0.555555556  0.444444444  0.000000000   1.0
  0.555555556  0.500000000  0.000000000   1.0
  0.555555556  0.555555556  0.000000000   1.0
  0.555555556  0.611111111  0.000000000   1.0
  0.555555556  0.666666667  0.000000000   1.0
  0.555555556  0.722222222  0.000000000   1.0
  0.555555556  0.777777778  0.000000000   1.0
  0.555555556  0.833333333  0.000000000   1.0
  0.555555556  0.888888889  0.000000000   1.0
  0.555555556  0.944444444  0.000000000   1.0
  0.611111111  0.000000000  0.000000000   1.0
  0.611111111  0.055555556  0.000000000   1.0
  0.611111111  0.111111111  0.000000000   1.0
  0.611111111  0.166666667  0.000000000   1.0
  0.611111111  0.222222222  0.000000000   1.0
  0.611111111  0.277777778  0.000000000   1.0
  0.611111111  0.333333333  0.000000000   1.0
  0.611111111  0.388888889  0.000000000   1.0
  0.611111111  0.444444444  0.000000000   1.0
  0.611111111  0.500000000  0.000000000   1.0
  0.611111111  0.555555556  0.000000000   1.0
  0.611111111  0.611111111  0.000000000   1.0
  0.611111111  0.666666667  0.000000000   1.0
  0.611111111  0.722222222  0.000000000   1.0
  0.611111111  0.777777778  0.000000000   1.0
  0.611111111  0.833333333  0.000000000   1.0
  0.611111111  0.888888889  0.000000000   1.0
  0.611111111  0.944444444  0.000000000   1.0
  0.666666667  0.000000000  0.000000000   1.0
  0.666666667  0.055555556  0.000000000   1.0
  0.666666667  0.111111111  0.000000000   1.0
  0.666666667  0.166666667  0.000000000   1.0
  0.666666667  0.222222222  0.000000000   1.0
  0.666666667  0.277777778  0.000000000   1.0
  0.666666667  0.333333333  0.000000000   1.0
  0.666666667  0.388888889  0.000000000   1.0
  0.666666667  0.444444444  0.000000000   1.0
  0.666666667  0.500000000  0.000000000   1.0
  0.666666667  0.555555556  0.000000000   1.0
  0.666666667  0.611111111  0.000000000   1.0
  0.666666667  0.666666667  0.000000000   1.0
  0.666666667  0.722222222  0.000000000   1.0
  0.666666667  0.777777778  0.000000000   1.0
  0.666666667  0.833333333  0.000000000   1.0
  0.666666667  0.888888889  0.000000000   1.0
  0.666666667  0.944444444  0.000000000   1.0
  0.722222222  0.000000000  0.000000000   1.0
  0.722222222  0.055555556  0.000000000   1.0
  0.722222222  0.111111111  0.000000000   1.0
  0.722222222  0.166666667  0.000000000   1.0
  0.722222222  0.222222222  0.000000000   1.0
  0.722222222  0.277777778  0.000000000   1.0
  0.722222222  0.333333333  0.000000000   1.0
  0.722222222  0.388888889  0.000000000   1.0
  0.722222222  0.444444444  0.000000000   1.0
  0.722222222  0.500000000  0.000000000   1.0
  0.722222222  0.555555556  0.000000000   1.0
  0.722222222  0.611111111  0.000000000   1.0
  0.722222222  0.666666667  0.000000000   1.0
  0.722222222  0.722222222  0.000000000   1.0
  0.722222222  0.777777778  0.000000000   1.0
  0.722222222  0.833333333  0.000000000   1.0
  0.722222222  0.888888889  0.000000000   1.0
  0.722222222  0.944444444  0.000000000   1.0
  0.777777778  0.000000000  0.000000000   1.0
  0.777777778  0.055555556  0.000000000   1.0
  0.777777778  0.111111111  0.000000000   1.0
  0.777777778  0.166666667  0.000000000   1.0
  0.777777778  0.222222222  0.000000000   1.0
  0.777777778  0.277777778  0.000000000   1.0
  0.777777778  0.333333333  0.000000000   1.0
  0.777777778  0.388888889  0.000000000   1.0
  0.777777778  0.444444444  0.000000000   1.0
  0.777777778  0.500000000  0.000000000   1.0
  0.777777778  0.555555556  0.000000000   1.0
  0.777777778  0.611111111  0.000000000   1.0
  0.777777778  0.666666667  0.000000000   1.0
  0.777777778  0.722222222  0.000000000   1.0
  0.777777778  0.777777778  0.000000000   1.0
  0.777777778  0.833333333  0.000000000   1.0
  0.777777778  0.888888889  0.000000000   1.0
  0.777777778  0.944444444  0.000000000   1.0
  0.833333333  0.000000000  0.000000000   1.0
  0.833333333  0.055555556  0.000000000   1.0
  0.833333333  0.111111111  0.000000000   1.0
  0.833333333  0.166666667  0.000000000   1.0
  0.833333333  0.222222222  0.000000000   1.0
  0.833333333  0.277777778  0.000000000   1.0
  0.833333333  0.333333333  0.000000000   1.0
  0.833333333  0.388888889  0.000000000   1.0
  0.833333333  0.444444444  0.000000000   1.0
  0.833333333  0.500000000  0.000000000   1.0
  0.833333333  0.555555556  0.000000000   1.0
  0.833333333  0.611111111  0.000000000   1.0
  0.833333333  0.666666667  0.000000000   1.0
  0.833333333  0.722222222  0.000000000   1.0
  0.833333333  0.777777778  0.000000000   1.0
  0.833333333  0.833333333  0.000000000   1.0
  0.833333333  0.888888889  0.000000000   1.0
  0.833333333  0.944444444  0.000000000   1.0
  0.888888889  0.000000000  0.000000000   1.0
  0.888888889  0.055555556  0.000000000   1.0
  0.888888889  0.111111111  0.000000000   1.0
  0.888888889  0.166666667  0.000000000   1.0
  0.888888889  0.222222222  0.000000000   1.0
  0.888888889  0.277777778  0.000000000   1.0
  0.888888889  0.333333333  0.000000000   1.0
  0.888888889  0.388888889  0.000000000   1.0
  0.888888889  0.444444444  0.000000000   1.0
  0.888888889  0.500000000  0.000000000   1.0
  0.888888889  0.555555556  0.000000000   1.0
  0.888888889  0.611111111  0.000000000   1.0
  0.888888889  0.666666667  0.000000000   1.0
  0.888888889  0.722222222  0.000000000   1.0
  0.888888889  0.777777778  0.000000000   1.0
  0.888888889  0.833333333  0.000000000   1.0
  0.888888889  0.888888889  0.000000000   1.0
  0.888888889  0.944444444  0.000000000   1.0
  0.944444444  0.000000000  0.000000000   1.0
  0.944444444  0.055555556  0.000000000   1.0
  0.944444444  0.111111111  0.000000000   1.0
  0.944444444  0.166666667  0.000000000   1.0
  0.944444444  0.222222222  0.000000000   1.0
  0.944444444  0.277777778  0.000000000   1.0
  0.944444444  0.333333333  0.000000000   1.0
  0.944444444  0.388888889  0.000000000   1.0
  0.944444444  0.444444444  0.000000000   1.0
  0.944444444  0.500000000  0.000000000   1.0
  0.944444444  0.555555556  0.000000000   1.0
  0.944444444  0.611111111  0.000000000   1.0
  0.944444444  0.666666667  0.000000000   1.0
  0.944444444  0.722222222  0.000000000   1.0
  0.944444444  0.777777778  0.000000000   1.0
  0.944444444  0.833333333  0.000000000   1.0
  0.944444444  0.888888889  0.000000000   1.0
  0.944444444  0.944444444  0.000000000   1.0
