&control
   prefix = 'slab'
   calculation = 'scf'
   verbosity = 'high'
   restart_mode = 'from_scratch'
   wf_collect = .true.
   tstress = .false.
   tprnfor = .false.
   outdir = './'
   pseudo_dir = './'
/
&system
  ibrav = 0
  nat = 3
  ntyp = 2
  ecutwfc = 60 
/
&electrons
  conv_thr = 1.d-8
  mixing_beta = 0.7d0
  diagonalization = 'david'
/
ATOMIC_SPECIES
  S  32.06     S.UPF
  Mo 95.95    Mo.UPF
ATOMIC_POSITIONS angstrom
S       1.581249254     0.912934683     7.642944200
Mo      0.000000000     1.825869366     9.209626859
S       1.581249254     0.912934683     10.776299039
K_POINTS automatic
 36 36  1 0 0 0
CELL_PARAMETERS angstrom
3.162498512     0.000000000     0.000000000
-1.581249256    2.738804051     0.000000000
0.000000000     0.000000000     21.383354839
