&CONTROL
   prefix = 'ptcda'
   calculation = 'scf'
   restart_mode = 'from_scratch'
   wf_collect = .true.
   tstress = .false.
   tprnfor = .false.
   outdir = './'
   wfcdir = './'
   pseudo_dir = './'
!   nstep = 2000
/

&SYSTEM
   ibrav = 0
  celldm(1)=6.2171989498d0
   nat = 388
   ntyp = 5
   ecutwfc = 60.0
  occupations='smearing'
  smearing='mv'
  degauss=0.01d0
/

&ELECTRONS
   electron_maxstep = 200
   conv_thr = 1.0d-6
   mixing_mode = 'plain'
   mixing_beta = 0.7
   mixing_ndim = 8
   diagonalization = 'david'
   diago_david_ndim = 4
   diago_full_acc = .true.
/
!
!&IONS
!   ion_dynamics = 'bfgs'
!/
!
!&CELL
!   cell_dynamics = 'bfgs'
!   cell_dofree = '2Dxy'
!/

CELL_PARAMETERS alat
   4.033046608   0.000000000   0.000000000
   0.000000000   6.985448380   0.000000000
   0.000000000   0.000000000   8.510638298

ATOMIC_SPECIES
  C 12.010700d0 C.UPF
  H 1.007940d0 H.UPF
  O 15.999400d0 O.UPF
  Se 78.9600d0 Se.UPF
  W 183.8400d0 W.UPF

ATOMIC_POSITIONS {crystal}
   C   0.2222234099d0   0.1111111967d0   0.0533261950d0
   C   0.5555573296d0   0.1111111967d0   0.0533261950d0
   C   0.8888912493d0   0.1111111967d0   0.0533261950d0
   C   0.2222234099d0   0.2222225017d0   0.0533261950d0
   C   0.5555573296d0   0.2222225017d0   0.0533261950d0
   C   0.8888912493d0   0.2222225017d0   0.0533261950d0
   C   0.2222234099d0   0.4444448951d0   0.0533261950d0
   C   0.5555573296d0   0.4444448951d0   0.0533261950d0
   C   0.8888912493d0   0.4444448951d0   0.0533261950d0
   C   0.2222234099d0   0.5555562001d0   0.0533261950d0
   C   0.5555573296d0   0.5555562001d0   0.0533261950d0
   C   0.8888912493d0   0.5555562001d0   0.0533261950d0
   C   0.2222234099d0   0.7777785935d0   0.0533261950d0
   C   0.5555573296d0   0.7777785935d0   0.0533261950d0
   C   0.8888912493d0   0.7777785935d0   0.0533261950d0
   C   0.2222234099d0   0.8888898985d0   0.0533261950d0
   C   0.5555573296d0   0.8888898985d0   0.0533261950d0
   C   0.8888912493d0   0.8888898985d0   0.0533261950d0
   C   0.2222234859d0   0.0000000000d0   0.0533262030d0
   C   0.5555574056d0   0.0000000000d0   0.0533262030d0
   C   0.8888913253d0   0.0000000000d0   0.0533262030d0
   C   0.2222234859d0   0.3333336984d0   0.0533262030d0
   C   0.5555574056d0   0.3333336984d0   0.0533262030d0
   C   0.8888913253d0   0.3333336984d0   0.0533262030d0
   C   0.2222234859d0   0.6666673968d0   0.0533262030d0
   C   0.5555574056d0   0.6666673968d0   0.0533262030d0
   C   0.8888913253d0   0.6666673968d0   0.0533262030d0
   C   0.0555561474d0   0.0555555455d0   0.0533483040d0
   C   0.3888900671d0   0.0555555455d0   0.0533483040d0
   C   0.7222239868d0   0.0555555455d0   0.0533483040d0
   C   0.0555561474d0   0.2777781529d0   0.0533483040d0
   C   0.3888900671d0   0.2777781529d0   0.0533483040d0
   C   0.7222239868d0   0.2777781529d0   0.0533483040d0
   C   0.0555561474d0   0.3888892439d0   0.0533483040d0
   C   0.3888900671d0   0.3888892439d0   0.0533483040d0
   C   0.7222239868d0   0.3888892439d0   0.0533483040d0
   C   0.0555561474d0   0.6111118513d0   0.0533483040d0
   C   0.3888900671d0   0.6111118513d0   0.0533483040d0
   C   0.7222239868d0   0.6111118513d0   0.0533483040d0
   C   0.0555561474d0   0.7222229423d0   0.0533483040d0
   C   0.3888900671d0   0.7222229423d0   0.0533483040d0
   C   0.7222239868d0   0.7222229423d0   0.0533483040d0
   C   0.0555561474d0   0.9444455497d0   0.0533483040d0
   C   0.3888900671d0   0.9444455497d0   0.0533483040d0
   C   0.7222239868d0   0.9444455497d0   0.0533483040d0
   C   0.0555563074d0   0.1666668492d0   0.0533483910d0
   C   0.3888902271d0   0.1666668492d0   0.0533483910d0
   C   0.7222241468d0   0.1666668492d0   0.0533483910d0
   C   0.0555563074d0   0.5000005476d0   0.0533483910d0
   C   0.3888902271d0   0.5000005476d0   0.0533483910d0
   C   0.7222241468d0   0.5000005476d0   0.0533483910d0
   C   0.0555563074d0   0.8333342460d0   0.0533483910d0
   C   0.3888902271d0   0.8333342460d0   0.0533483910d0
   C   0.7222241468d0   0.8333342460d0   0.0533483910d0
   C  -0.0000004883d0   0.1111111980d0   0.0533516060d0
   C   0.3333334313d0   0.1111111980d0   0.0533516060d0
   C   0.6666673510d0   0.1111111980d0   0.0533516060d0
   C  -0.0000004883d0   0.2222225004d0   0.0533516060d0
   C   0.3333334313d0   0.2222225004d0   0.0533516060d0
   C   0.6666673510d0   0.2222225004d0   0.0533516060d0
   C  -0.0000004883d0   0.4444448964d0   0.0533516060d0
   C   0.3333334313d0   0.4444448964d0   0.0533516060d0
   C   0.6666673510d0   0.4444448964d0   0.0533516060d0
   C  -0.0000004883d0   0.5555561988d0   0.0533516060d0
   C   0.3333334313d0   0.5555561988d0   0.0533516060d0
   C   0.6666673510d0   0.5555561988d0   0.0533516060d0
   C  -0.0000004883d0   0.7777785948d0   0.0533516060d0
   C   0.3333334313d0   0.7777785948d0   0.0533516060d0
   C   0.6666673510d0   0.7777785948d0   0.0533516060d0
   C  -0.0000004883d0   0.8888898972d0   0.0533516060d0
   C   0.3333334313d0   0.8888898972d0   0.0533516060d0
   C   0.6666673510d0   0.8888898972d0   0.0533516060d0
   C  -0.0000006170d0   0.0000000000d0   0.0533517400d0
   C   0.3333333027d0   0.0000000000d0   0.0533517400d0
   C   0.6666672224d0   0.0000000000d0   0.0533517400d0
   C  -0.0000006170d0   0.3333336984d0   0.0533517400d0
   C   0.3333333027d0   0.3333336984d0   0.0533517400d0
   C   0.6666672224d0   0.3333336984d0   0.0533517400d0
   C  -0.0000006170d0   0.6666673968d0   0.0533517400d0
   C   0.3333333027d0   0.6666673968d0   0.0533517400d0
   C   0.6666672224d0   0.6666673968d0   0.0533517400d0
   C   0.1666667675d0   0.1666668492d0   0.0533737900d0
   C   0.5000006872d0   0.1666668492d0   0.0533737900d0
   C   0.8333346069d0   0.1666668492d0   0.0533737900d0
   C   0.1666667675d0   0.5000005476d0   0.0533737900d0
   C   0.5000006872d0   0.5000005476d0   0.0533737900d0
   C   0.8333346069d0   0.5000005476d0   0.0533737900d0
   C   0.1666667675d0   0.8333342460d0   0.0533737900d0
   C   0.5000006872d0   0.8333342460d0   0.0533737900d0
   C   0.8333346069d0   0.8333342460d0   0.0533737900d0
   C   0.1666663972d0   0.0555555895d0   0.0533739700d0
   C   0.5000003169d0   0.0555555895d0   0.0533739700d0
   C   0.8333342365d0   0.0555555895d0   0.0533739700d0
   C   0.1666663972d0   0.2777781089d0   0.0533739700d0
   C   0.5000003169d0   0.2777781089d0   0.0533739700d0
   C   0.8333342365d0   0.2777781089d0   0.0533739700d0
   C   0.1666663972d0   0.3888892879d0   0.0533739700d0
   C   0.5000003169d0   0.3888892879d0   0.0533739700d0
   C   0.8333342365d0   0.3888892879d0   0.0533739700d0
   C   0.1666663972d0   0.6111118073d0   0.0533739700d0
   C   0.5000003169d0   0.6111118073d0   0.0533739700d0
   C   0.8333342365d0   0.6111118073d0   0.0533739700d0
   C   0.1666663972d0   0.7222229863d0   0.0533739700d0
   C   0.5000003169d0   0.7222229863d0   0.0533739700d0
   C   0.8333342365d0   0.7222229863d0   0.0533739700d0
   C   0.1666663972d0   0.9444455057d0   0.0533739700d0
   C   0.5000003169d0   0.9444455057d0   0.0533739700d0
   C   0.8333342365d0   0.9444455057d0   0.0533739700d0
   C   0.1666678638d0   0.0555555488d0   0.1731974940d0
   C   0.5000017835d0   0.0555555488d0   0.1731974940d0
   C   0.8333357032d0   0.0555555488d0   0.1731974940d0
   C   0.1666678638d0   0.2777781496d0   0.1731974940d0
   C   0.5000017835d0   0.2777781496d0   0.1731974940d0
   C   0.8333357032d0   0.2777781496d0   0.1731974940d0
   C   0.1666678638d0   0.3888892472d0   0.1731974940d0
   C   0.5000017835d0   0.3888892472d0   0.1731974940d0
   C   0.8333357032d0   0.3888892472d0   0.1731974940d0
   C   0.1666678638d0   0.6111118480d0   0.1731974940d0
   C   0.5000017835d0   0.6111118480d0   0.1731974940d0
   C   0.8333357032d0   0.6111118480d0   0.1731974940d0
   C   0.1666678638d0   0.7222229456d0   0.1731974940d0
   C   0.5000017835d0   0.7222229456d0   0.1731974940d0
   C   0.8333357032d0   0.7222229456d0   0.1731974940d0
   C   0.1666678638d0   0.9444455464d0   0.1731974940d0
   C   0.5000017835d0   0.9444455464d0   0.1731974940d0
   C   0.8333357032d0   0.9444455464d0   0.1731974940d0
   C   0.1666678878d0   0.1666668492d0   0.1731975650d0
   C   0.5000018075d0   0.1666668492d0   0.1731975650d0
   C   0.8333357272d0   0.1666668492d0   0.1731975650d0
   C   0.1666678878d0   0.5000005476d0   0.1731975650d0
   C   0.5000018075d0   0.5000005476d0   0.1731975650d0
   C   0.8333357272d0   0.5000005476d0   0.1731975650d0
   C   0.1666678878d0   0.8333342460d0   0.1731975650d0
   C   0.5000018075d0   0.8333342460d0   0.1731975650d0
   C   0.8333357272d0   0.8333342460d0   0.1731975650d0
   C   0.2777776163d0   0.1666668492d0   0.1732230590d0
   C   0.6111115360d0   0.1666668492d0   0.1732230590d0
   C   0.9444454557d0   0.1666668492d0   0.1732230590d0
   C   0.2777776163d0   0.5000005476d0   0.1732230590d0
   C   0.6111115360d0   0.5000005476d0   0.1732230590d0
   C   0.9444454557d0   0.5000005476d0   0.1732230590d0
   C   0.2777776163d0   0.8333342460d0   0.1732230590d0
   C   0.6111115360d0   0.8333342460d0   0.1732230590d0
   C   0.9444454557d0   0.8333342460d0   0.1732230590d0
   C   0.2777775503d0   0.0555555372d0   0.1732231890d0
   C   0.6111114700d0   0.0555555372d0   0.1732231890d0
   C   0.9444453897d0   0.0555555372d0   0.1732231890d0
   C   0.2777775503d0   0.2777781612d0   0.1732231890d0
   C   0.6111114700d0   0.2777781612d0   0.1732231890d0
   C   0.9444453897d0   0.2777781612d0   0.1732231890d0
   C   0.2777775503d0   0.3888892356d0   0.1732231890d0
   C   0.6111114700d0   0.3888892356d0   0.1732231890d0
   C   0.9444453897d0   0.3888892356d0   0.1732231890d0
   C   0.2777775503d0   0.6111118596d0   0.1732231890d0
   C   0.6111114700d0   0.6111118596d0   0.1732231890d0
   C   0.9444453897d0   0.6111118596d0   0.1732231890d0
   C   0.2777775503d0   0.7222229340d0   0.1732231890d0
   C   0.6111114700d0   0.7222229340d0   0.1732231890d0
   C   0.9444453897d0   0.7222229340d0   0.1732231890d0
   C   0.2777775503d0   0.9444455580d0   0.1732231890d0
   C   0.6111114700d0   0.9444455580d0   0.1732231890d0
   C   0.9444453897d0   0.9444455580d0   0.1732231890d0
   C   0.0000007150d0   0.1111111297d0   0.1732340140d0
   C   0.3333346347d0   0.1111111297d0   0.1732340140d0
   C   0.6666685544d0   0.1111111297d0   0.1732340140d0
   C   0.0000007150d0   0.2222225687d0   0.1732340140d0
   C   0.3333346347d0   0.2222225687d0   0.1732340140d0
   C   0.6666685544d0   0.2222225687d0   0.1732340140d0
   C   0.0000007150d0   0.4444448281d0   0.1732340140d0
   C   0.3333346347d0   0.4444448281d0   0.1732340140d0
   C   0.6666685544d0   0.4444448281d0   0.1732340140d0
   C   0.0000007150d0   0.5555562671d0   0.1732340140d0
   C   0.3333346347d0   0.5555562671d0   0.1732340140d0
   C   0.6666685544d0   0.5555562671d0   0.1732340140d0
   C   0.0000007150d0   0.7777785265d0   0.1732340140d0
   C   0.3333346347d0   0.7777785265d0   0.1732340140d0
   C   0.6666685544d0   0.7777785265d0   0.1732340140d0
   C   0.0000007150d0   0.8888899655d0   0.1732340140d0
   C   0.3333346347d0   0.8888899655d0   0.1732340140d0
   C   0.6666685544d0   0.8888899655d0   0.1732340140d0
   C   0.0000008167d0   0.0000000000d0   0.1732340900d0
   C   0.3333347364d0   0.0000000000d0   0.1732340900d0
   C   0.6666686560d0   0.0000000000d0   0.1732340900d0
   C   0.0000008167d0   0.3333336984d0   0.1732340900d0
   C   0.3333347364d0   0.3333336984d0   0.1732340900d0
   C   0.6666686560d0   0.3333336984d0   0.1732340900d0
   C   0.0000008167d0   0.6666673968d0   0.1732340900d0
   C   0.3333347364d0   0.6666673968d0   0.1732340900d0
   C   0.6666686560d0   0.6666673968d0   0.1732340900d0
   C   0.1111107474d0   0.0000000000d0   0.1732594720d0
   C   0.4444446671d0   0.0000000000d0   0.1732594720d0
   C   0.7777785868d0   0.0000000000d0   0.1732594720d0
   C   0.1111107474d0   0.3333336984d0   0.1732594720d0
   C   0.4444446671d0   0.3333336984d0   0.1732594720d0
   C   0.7777785868d0   0.3333336984d0   0.1732594720d0
   C   0.1111107474d0   0.6666673968d0   0.1732594720d0
   C   0.4444446671d0   0.6666673968d0   0.1732594720d0
   C   0.7777785868d0   0.6666673968d0   0.1732594720d0
   C   0.1111107501d0   0.1111112340d0   0.1732595020d0
   C   0.4444446698d0   0.1111112340d0   0.1732595020d0
   C   0.7777785895d0   0.1111112340d0   0.1732595020d0
   C   0.1111107501d0   0.2222224644d0   0.1732595020d0
   C   0.4444446698d0   0.2222224644d0   0.1732595020d0
   C   0.7777785895d0   0.2222224644d0   0.1732595020d0
   C   0.1111107501d0   0.4444449324d0   0.1732595020d0
   C   0.4444446698d0   0.4444449324d0   0.1732595020d0
   C   0.7777785895d0   0.4444449324d0   0.1732595020d0
   C   0.1111107501d0   0.5555561628d0   0.1732595020d0
   C   0.4444446698d0   0.5555561628d0   0.1732595020d0
   C   0.7777785895d0   0.5555561628d0   0.1732595020d0
   C   0.1111107501d0   0.7777786308d0   0.1732595020d0
   C   0.4444446698d0   0.7777786308d0   0.1732595020d0
   C   0.7777785895d0   0.7777786308d0   0.1732595020d0
   C   0.1111107501d0   0.8888898612d0   0.1732595020d0
   C   0.4444446698d0   0.8888898612d0   0.1732595020d0
   C   0.7777785895d0   0.8888898612d0   0.1732595020d0
  Se   0.0000000000d0   0.0833333751d0   0.2954139403d0
  Se   0.2500008796d0   0.0833333751d0   0.2954139403d0
  Se   0.5000017590d0   0.0833333751d0   0.2954139403d0
  Se   0.7500026386d0   0.0833333751d0   0.2954139403d0
  Se   0.0000000000d0   0.3333339227d0   0.2954139403d0
  Se   0.2500008796d0   0.3333339227d0   0.2954139403d0
  Se   0.5000017590d0   0.3333339227d0   0.2954139403d0
  Se   0.7500026386d0   0.3333339227d0   0.2954139403d0
  Se   0.0000000000d0   0.5833344703d0   0.2954139403d0
  Se   0.2500008796d0   0.5833344703d0   0.2954139403d0
  Se   0.5000017590d0   0.5833344703d0   0.2954139403d0
  Se   0.7500026386d0   0.5833344703d0   0.2954139403d0
  Se   0.0000000000d0   0.8333350179d0   0.2954139403d0
  Se   0.2500008796d0   0.8333350179d0   0.2954139403d0
  Se   0.5000017590d0   0.8333350179d0   0.2954139403d0
  Se   0.7500026386d0   0.8333350179d0   0.2954139403d0
  Se   0.1250004398d0   0.2083336434d0   0.2954140826d0
  Se   0.3750013192d0   0.2083336434d0   0.2954140826d0
  Se   0.6250021988d0   0.2083336434d0   0.2954140826d0
  Se   0.8750030784d0   0.2083336434d0   0.2954140826d0
  Se   0.1250004398d0   0.4583341910d0   0.2954140826d0
  Se   0.3750013192d0   0.4583341910d0   0.2954140826d0
  Se   0.6250021988d0   0.4583341910d0   0.2954140826d0
  Se   0.8750030784d0   0.4583341910d0   0.2954140826d0
  Se   0.1250004398d0   0.7083347386d0   0.2954140826d0
  Se   0.3750013192d0   0.7083347386d0   0.2954140826d0
  Se   0.6250021988d0   0.7083347386d0   0.2954140826d0
  Se   0.8750030784d0   0.7083347386d0   0.2954140826d0
  Se   0.1250004398d0   0.9583352862d0   0.2954140826d0
  Se   0.3750013192d0   0.9583352862d0   0.2954140826d0
  Se   0.6250021988d0   0.9583352862d0   0.2954140826d0
  Se   0.8750030784d0   0.9583352862d0   0.2954140826d0
   W   0.0000000000d0   0.1666672862d0   0.3554144717d0
   W   0.2500008796d0   0.1666672862d0   0.3554144717d0
   W   0.5000017590d0   0.1666672862d0   0.3554144717d0
   W   0.7500026386d0   0.1666672862d0   0.3554144717d0
   W   0.0000000000d0   0.4166678339d0   0.3554144717d0
   W   0.2500008796d0   0.4166678339d0   0.3554144717d0
   W   0.5000017590d0   0.4166678339d0   0.3554144717d0
   W   0.7500026386d0   0.4166678339d0   0.3554144717d0
   W   0.0000000000d0   0.6666683815d0   0.3554144717d0
   W   0.2500008796d0   0.6666683815d0   0.3554144717d0
   W   0.5000017590d0   0.6666683815d0   0.3554144717d0
   W   0.7500026386d0   0.6666683815d0   0.3554144717d0
   W   0.0000000000d0   0.9166689291d0   0.3554144717d0
   W   0.2500008796d0   0.9166689291d0   0.3554144717d0
   W   0.5000017590d0   0.9166689291d0   0.3554144717d0
   W   0.7500026386d0   0.9166689291d0   0.3554144717d0
   W   0.1250004398d0   0.0416664482d0   0.3554147503d0
   W   0.3750013192d0   0.0416664482d0   0.3554147503d0
   W   0.6250021988d0   0.0416664482d0   0.3554147503d0
   W   0.8750030784d0   0.0416664482d0   0.3554147503d0
   W   0.1250004398d0   0.2916669958d0   0.3554147503d0
   W   0.3750013192d0   0.2916669958d0   0.3554147503d0
   W   0.6250021988d0   0.2916669958d0   0.3554147503d0
   W   0.8750030784d0   0.2916669958d0   0.3554147503d0
   W   0.1250004398d0   0.5416675434d0   0.3554147503d0
   W   0.3750013192d0   0.5416675434d0   0.3554147503d0
   W   0.6250021988d0   0.5416675434d0   0.3554147503d0
   W   0.8750030784d0   0.5416675434d0   0.3554147503d0
   W   0.1250004398d0   0.7916680910d0   0.3554147503d0
   W   0.3750013192d0   0.7916680910d0   0.3554147503d0
   W   0.6250021988d0   0.7916680910d0   0.3554147503d0
   W   0.8750030784d0   0.7916680910d0   0.3554147503d0
  Se   0.0000000000d0   0.0833334694d0   0.4154035209d0
  Se   0.2500008796d0   0.0833334694d0   0.4154035209d0
  Se   0.5000017590d0   0.0833334694d0   0.4154035209d0
  Se   0.7500026386d0   0.0833334694d0   0.4154035209d0
  Se   0.1250004398d0   0.2083337839d0   0.4154035209d0
  Se   0.3750013192d0   0.2083337839d0   0.4154035209d0
  Se   0.6250021988d0   0.2083337839d0   0.4154035209d0
  Se   0.8750030784d0   0.2083337839d0   0.4154035209d0
  Se   0.0000000000d0   0.3333340170d0   0.4154035209d0
  Se   0.2500008796d0   0.3333340170d0   0.4154035209d0
  Se   0.5000017590d0   0.3333340170d0   0.4154035209d0
  Se   0.7500026386d0   0.3333340170d0   0.4154035209d0
  Se   0.1250004398d0   0.4583343315d0   0.4154035209d0
  Se   0.3750013192d0   0.4583343315d0   0.4154035209d0
  Se   0.6250021988d0   0.4583343315d0   0.4154035209d0
  Se   0.8750030784d0   0.4583343315d0   0.4154035209d0
  Se   0.0000000000d0   0.5833345646d0   0.4154035209d0
  Se   0.2500008796d0   0.5833345646d0   0.4154035209d0
  Se   0.5000017590d0   0.5833345646d0   0.4154035209d0
  Se   0.7500026386d0   0.5833345646d0   0.4154035209d0
  Se   0.1250004398d0   0.7083348791d0   0.4154035209d0
  Se   0.3750013192d0   0.7083348791d0   0.4154035209d0
  Se   0.6250021988d0   0.7083348791d0   0.4154035209d0
  Se   0.8750030784d0   0.7083348791d0   0.4154035209d0
  Se   0.0000000000d0   0.8333351122d0   0.4154035209d0
  Se   0.2500008796d0   0.8333351122d0   0.4154035209d0
  Se   0.5000017590d0   0.8333351122d0   0.4154035209d0
  Se   0.7500026386d0   0.8333351122d0   0.4154035209d0
  Se   0.1250004398d0   0.9583354267d0   0.4154035209d0
  Se   0.3750013192d0   0.9583354267d0   0.4154035209d0
  Se   0.6250021988d0   0.9583354267d0   0.4154035209d0
  Se   0.8750030784d0   0.9583354267d0   0.4154035209d0
     O   0.7497527006d0   0.2698705192d0   0.5350521189d0
   O   0.8450773790d0   0.3497690812d0   0.5350884214d0
   O   0.5891872248d0   0.8685738546d0   0.5352079346d0
   O   0.7189138832d0   0.8070856728d0   0.5352427226d0
   O   0.4042976954d0   0.1219427972d0   0.5352568012d0
   O   0.2432032856d0   0.7169026684d0   0.5352584709d0
   C   0.7513098432d0   0.3224817204d0   0.5352787689d0
   O   0.1483674100d0   0.2474890452d0   0.5353565957d0
   O   0.0485787150d0   0.5587213408d0   0.5353668103d0
   O   0.2741564726d0   0.1831469612d0   0.5353699209d0
   O   0.1486556700d0   0.6367984118d0   0.5353807380d0
   O   0.9458010774d0   0.4275988076d0   0.5353954843d0
   C   0.8600675408d0   0.4102880156d0   0.5355098383d0
   C   0.6797649644d0   0.8634246462d0   0.5355426900d0
   C   0.2423301036d0   0.6642996490d0   0.5356271880d0
   C   0.3137164826d0   0.1268594428d0   0.5356300654d0
   C   0.1711503712d0   0.1967106868d0   0.5356960612d0
   O   0.8441412068d0   0.7424749844d0   0.5357185012d0
   C   0.1341094398d0   0.5763431334d0   0.5357374037d0
   C   0.6621229194d0   0.3602635902d0   0.5357939057d0
   C   0.8218102672d0   0.7933151076d0   0.5358091654d0
   C   0.6724711738d0   0.4214868132d0   0.5360694532d0
   C   0.7694360710d0   0.4469932060d0   0.5360811206d0
   C   0.7527046220d0   0.9115097996d0   0.5362548249d0
   C   0.3319699869d0   0.6268038160d0   0.5362675132d0
   C   0.2411391304d0   0.0785615070d0   0.5363052343d0
   H   0.5602927722d0   0.2883035286d0   0.5363082009d0
   C   0.5670091548d0   0.3353899086d0   0.5363641277d0
   C   0.1004025382d0   0.1475675192d0   0.5363727206d0
   C   0.2250028666d0   0.5398987746d0   0.5364486523d0
   C   0.8929833916d0   0.8422808850d0   0.5364551203d0
   C   0.3218765204d0   0.5655644958d0   0.5365056480d0
   C   0.1363574668d0   0.0896466124d0   0.5365349306d0
   C   0.8574681046d0   0.9002796690d0   0.5366065277d0
   C   0.5847788844d0   0.4575528062d0   0.5366484506d0
   H   0.4338488544d0   0.6988507318d0   0.5366691806d0
   H   0.6373776274d0   0.9763262866d0   0.5367214209d0
   C   0.4270977976d0   0.6517511306d0   0.5367338357d0
   C   0.7180714022d0   0.9684028732d0   0.5368064666d0
   H   0.9705862976d0   0.2030149976d0   0.5368655949d0
   C   0.9976138526d0   0.1583867400d0   0.5368897466d0
   C   0.7795359684d0   0.5070590426d0   0.5368918689d0
   C   0.4096248910d0   0.5295721090d0   0.5369068954d0
   C   0.2759203198d0   0.0217002176d0   0.5369243400d0
   H   0.3566210246d0   0.0138939374d0   0.5369602423d0
   C   0.4874657400d0   0.4310057530d0   0.5369913797d0
   H   0.0225185262d0   0.7866543080d0   0.5369967489d0
   C   0.9957345060d0   0.8313438560d0   0.5370186257d0
   C   0.4813420114d0   0.3702849600d0   0.5370293854d0
   C   0.0667854910d0   0.0421904384d0   0.5370302272d0
   C   0.2148668790d0   0.4798535060d0   0.5370672866d0
   H   0.8545301634d0   0.5261582086d0   0.5370761374d0
   C   0.5967290934d0   0.5192940144d0   0.5371591972d0
   C   0.9273916756d0   0.9475592756d0   0.5371743909d0
   C   0.3976008788d0   0.4678451678d0   0.5371760863d0
   C   0.5068880662d0   0.5562007004d0   0.5371862494d0
   H   0.1398746410d0   0.4607638712d0   0.5372033032d0
   C   0.5129375136d0   0.6169256564d0   0.5372663700d0
   C   0.9612886028d0   0.0543074090d0   0.5373231874d0
   C   0.8899723480d0   0.0058024648d0   0.5373819489d0
   C   0.1043128090d0   0.9839437922d0   0.5373856397d0
   C   0.9295195042d0   0.1123068700d0   0.5373886217d0
   C   0.7857732694d0   0.0146587272d0   0.5373949594d0
   C   0.3002284572d0   0.4445758848d0   0.5374380412d0
   C   0.6941952042d0   0.5424249872d0   0.5374394246d0
   C   0.0329393478d0   0.9353884398d0   0.5374770874d0
   C   0.2085408086d0   0.9752671952d0   0.5374999920d0
   C   0.0642294080d0   0.8773072166d0   0.5375003889d0
   H   0.4085962784d0   0.3487908390d0   0.5375997223d0
   H   0.5856898336d0   0.6384014234d0   0.5376882917d0
   H   0.7551408886d0   0.0583841238d0   0.5377394589d0
   H   0.1437332266d0   0.8663883248d0   0.5377709460d0
   H   0.8499384412d0   0.1230287724d0   0.5378018597d0
   H   0.2887636188d0   0.3978558134d0   0.5378774992d0
   H   0.2393484130d0   0.9315606494d0   0.5380171697d0
   H   0.7058086460d0   0.5891322744d0   0.5380457906d0

K_POINTS {automatic}
  4 2 1 0 0 0
