&CONTROL
   prefix = 'ptcda'
   calculation = 'scf'
   restart_mode = 'from_scratch'
   wf_collect = .true.
   tstress = .false.
   tprnfor = .false.
   outdir = './'
   wfcdir = './'
   pseudo_dir = './'
!   nstep = 2000
/

&SYSTEM
   ibrav = 0
  celldm(1)=5.519020736d0
   nat = 226 
   ntyp = 4
   ecutwfc = 60.0
!   nbnd = 2000
  occupations='smearing'
  smearing='mv'
  degauss=0.03d0
/

&ELECTRONS
   electron_maxstep = 200
   conv_thr = 1.0d-8
   mixing_mode = 'plain'
   mixing_beta = 0.7
   mixing_ndim = 8
   diagonalization = 'david'
   diago_david_ndim = 4
   diago_full_acc = .true.
/

!&IONS
!   ion_dynamics = 'bfgs'
!/
!
!&CELL
!   cell_dynamics = 'bfgs'
!   cell_dofree = '2Dxy'
!/

CELL_PARAMETERS alat
  5.000000000000d0  0.000000000000d0  0.000000000000d0
  0.000000000000d0  8.660254037840d0  0.000000000000d0
  0.000000000000d0  0.000000000000d0  8.217658379870d0

ATOMIC_SPECIES
  C 12.010700d0 C.UPF
  H 1.007940d0 H.UPF
  O 15.999400d0 O.UPF
  Ag 107.868000d0 Ag.UPF

ATOMIC_POSITIONS {crystal}
   C   0.7309090000d0   0.3451470000d0   0.4367390000d0
   C   0.7087600000d0   0.8781240000d0   0.4354850000d0
   C   0.8297080000d0   0.4249650000d0   0.4381030000d0
   C   0.2703750000d0   0.6552450000d0   0.4366950000d0
   C   0.2867410000d0   0.1137440000d0   0.4363010000d0
   C   0.1583110000d0   0.1779690000d0   0.4370940000d0
   C   0.1716410000d0   0.5753770000d0   0.4381700000d0
   C   0.8371110000d0   0.8137230000d0   0.4377430000d0
   C   0.6507100000d0   0.3786160000d0   0.4399550000d0
   C   0.7486670000d0   0.4578700000d0   0.4410960000d0
   C   0.6602480000d0   0.4345550000d0   0.4417480000d0
   C   0.3505950000d0   0.6217870000d0   0.4398090000d0
   C   0.0941210000d0   0.1345500000d0   0.4406030000d0
   C   0.7738950000d0   0.9209960000d0   0.4392500000d0
   C   0.2215990000d0   0.0708850000d0   0.4399870000d0
   C   0.5629140000d0   0.3558390000d0   0.4370140000d0
   C   0.2527230000d0   0.5425020000d0   0.4412490000d0
   C   0.9013540000d0   0.8572640000d0   0.4406190000d0
   C   0.3411170000d0   0.5658480000d0   0.4417380000d0
   C   0.1260070000d0   0.0815460000d0   0.4418360000d0
   C   0.8694850000d0   0.9102900000d0   0.4414460000d0
   C   0.5800440000d0   0.4675430000d0   0.4418280000d0
   C   0.4383670000d0   0.6445660000d0   0.4366030000d0
   C   0.7425310000d0   0.9738130000d0   0.4386140000d0
   C   0.7577960000d0   0.5133470000d0   0.4399830000d0
   C   0.0000000000d0   0.1447950000d0   0.4378110000d0
   C   0.4213720000d0   0.5328870000d0   0.4418180000d0
   C   0.2528810000d0   0.0180860000d0   0.4391120000d0
   C   0.2436470000d0   0.4870260000d0   0.4403150000d0
   C   0.9961400000d0   0.8470270000d0   0.4381540000d0
   C   0.4851680000d0   0.3873880000d0   0.4369750000d0
   C   0.4911170000d0   0.4435200000d0   0.4409120000d0
   C   0.0615000000d0   0.0385210000d0   0.4422130000d0
   C   0.9339190000d0   0.9533440000d0   0.4419650000d0
   C   0.5907290000d0   0.5239470000d0   0.4414490000d0
   C   0.5103110000d0   0.5569150000d0   0.4406540000d0
   C   0.4107150000d0   0.4764910000d0   0.4416880000d0
   C   0.5161690000d0   0.6130370000d0   0.4364580000d0
   C   0.9652380000d0   0.0497810000d0   0.4413690000d0
   C   0.8040290000d0   0.0153880000d0   0.4396810000d0
   C   0.9006070000d0   0.0067430000d0   0.4413860000d0
   C   0.6808790000d0   0.5454280000d0   0.4400710000d0
   C   0.9367550000d0   0.1035770000d0   0.4379830000d0
   C   0.3205970000d0   0.4549820000d0   0.4404580000d0
   C   0.0947840000d0   0.9851400000d0   0.4417380000d0
   C   0.0301650000d0   0.9420800000d0   0.4415010000d0
   C   0.0586920000d0   0.8882630000d0   0.4382700000d0
   C   0.1913040000d0   0.9765310000d0   0.4399450000d0
   H   0.5571110000d0   0.3128560000d0   0.4351400000d0
   H   0.4441880000d0   0.6875440000d0   0.4346110000d0
   H   0.6688510000d0   0.9809600000d0   0.4380480000d0
   H   0.9762850000d0   0.1857890000d0   0.4356670000d0
   H   0.3265580000d0   0.0108930000d0   0.4385630000d0
   H   0.0192360000d0   0.8060330000d0   0.4362990000d0
   H   0.8264640000d0   0.5303490000d0   0.4397780000d0
   H   0.1749890000d0   0.4700090000d0   0.4401720000d0
   H   0.4187030000d0   0.3680160000d0   0.4356180000d0
   H   0.5826120000d0   0.6324360000d0   0.4349070000d0
   H   0.7768600000d0   0.0554440000d0   0.4399460000d0
   H   0.8642530000d0   0.1134370000d0   0.4362320000d0
   H   0.1312040000d0   0.8784320000d0   0.4367470000d0
   H   0.3105180000d0   0.4123320000d0   0.4410880000d0
   H   0.2185040000d0   0.9364720000d0   0.4400000000d0
   H   0.6910060000d0   0.5880790000d0   0.4405920000d0
   O   0.7310970000d0   0.2968540000d0   0.4297360000d0
   O   0.6253120000d0   0.8824110000d0   0.4285570000d0
   O   0.3702860000d0   0.1094420000d0   0.4298460000d0
   O   0.2701170000d0   0.7035460000d0   0.4298080000d0
   O   0.1389460000d0   0.2250070000d0   0.4308520000d0
   O   0.9090650000d0   0.4403100000d0   0.4326610000d0
   O   0.0923180000d0   0.5599820000d0   0.4327550000d0
   O   0.2518410000d0   0.1653180000d0   0.4377200000d0
   O   0.7434960000d0   0.8265690000d0   0.4375200000d0
   O   0.8163110000d0   0.3699640000d0   0.4389470000d0
   O   0.1849810000d0   0.6303830000d0   0.4388610000d0
   O   0.8562880000d0   0.7665730000d0   0.4329720000d0
  Ag   0.1999998076d0   0.0333332934d0   0.1193590140d0
  Ag   0.1999998076d0   0.2333330535d0   0.1193590140d0
  Ag   0.1999998076d0   0.4333328136d0   0.1193590140d0
  Ag   0.1999998076d0   0.6333325737d0   0.1193590140d0
  Ag   0.1999998076d0   0.8333323338d0   0.1193590140d0
  Ag   0.3999994228d0   0.0333332934d0   0.1193590140d0
  Ag   0.3999994228d0   0.2333330535d0   0.1193590140d0
  Ag   0.3999994228d0   0.4333328136d0   0.1193590140d0
  Ag   0.3999994228d0   0.6333325737d0   0.1193590140d0
  Ag   0.3999994228d0   0.8333323338d0   0.1193590140d0
  Ag   0.5999990380d0   0.0333332934d0   0.1193590140d0
  Ag   0.5999990380d0   0.2333330535d0   0.1193590140d0
  Ag   0.5999990380d0   0.4333328136d0   0.1193590140d0
  Ag   0.5999990380d0   0.6333325737d0   0.1193590140d0
  Ag   0.5999990380d0   0.8333323338d0   0.1193590140d0
  Ag   0.7999986532d0   0.0333332934d0   0.1193590140d0
  Ag   0.7999986532d0   0.2333330535d0   0.1193590140d0
  Ag   0.7999986532d0   0.4333328136d0   0.1193590140d0
  Ag   0.7999986532d0   0.6333325737d0   0.1193590140d0
  Ag   0.7999986532d0   0.8333323338d0   0.1193590140d0
  Ag   0.9999982683d0   0.0333332934d0   0.1193590140d0
  Ag   0.9999982683d0   0.2333330535d0   0.1193590140d0
  Ag   0.9999982683d0   0.4333328136d0   0.1193590140d0
  Ag   0.9999982683d0   0.6333325737d0   0.1193590140d0
  Ag   0.9999982683d0   0.8333323338d0   0.1193590140d0
  Ag   0.1000000000d0   0.0666665867d0   0.2187176114d0
  Ag   0.1000000000d0   0.2666663468d0   0.2187176114d0
  Ag   0.1000000000d0   0.4666661069d0   0.2187176114d0
  Ag   0.1000000000d0   0.6666658670d0   0.2187176114d0
  Ag   0.1000000000d0   0.8666656272d0   0.2187176114d0
  Ag   0.2999996152d0   0.0666665867d0   0.2187176114d0
  Ag   0.2999996152d0   0.2666663468d0   0.2187176114d0
  Ag   0.2999996152d0   0.4666661069d0   0.2187176114d0
  Ag   0.2999996152d0   0.6666658670d0   0.2187176114d0
  Ag   0.2999996152d0   0.8666656272d0   0.2187176114d0
  Ag   0.4999992304d0   0.0666665867d0   0.2187176114d0
  Ag   0.4999992304d0   0.2666663468d0   0.2187176114d0
  Ag   0.4999992304d0   0.4666661069d0   0.2187176114d0
  Ag   0.4999992304d0   0.6666658670d0   0.2187176114d0
  Ag   0.4999992304d0   0.8666656272d0   0.2187176114d0
  Ag   0.6999988456d0   0.0666665867d0   0.2187176114d0
  Ag   0.6999988456d0   0.2666663468d0   0.2187176114d0
  Ag   0.6999988456d0   0.4666661069d0   0.2187176114d0
  Ag   0.6999988456d0   0.6666658670d0   0.2187176114d0
  Ag   0.6999988456d0   0.8666656272d0   0.2187176114d0
  Ag   0.8999984608d0   0.0666665867d0   0.2187176114d0
  Ag   0.8999984608d0   0.2666663468d0   0.2187176114d0
  Ag   0.8999984608d0   0.4666661069d0   0.2187176114d0
  Ag   0.8999984608d0   0.6666658670d0   0.2187176114d0
  Ag   0.8999984608d0   0.8666656272d0   0.2187176114d0
  Ag   0.1000000000d0   0.1333331734d0   0.1193590140d0
  Ag   0.1000000000d0   0.3333329335d0   0.1193590140d0
  Ag   0.1000000000d0   0.5333326936d0   0.1193590140d0
  Ag   0.1000000000d0   0.7333324537d0   0.1193590140d0
  Ag   0.1000000000d0   0.9333322139d0   0.1193590140d0
  Ag   0.2999996152d0   0.1333331734d0   0.1193590140d0
  Ag   0.2999996152d0   0.3333329335d0   0.1193590140d0
  Ag   0.2999996152d0   0.5333326936d0   0.1193590140d0
  Ag   0.2999996152d0   0.7333324537d0   0.1193590140d0
  Ag   0.2999996152d0   0.9333322139d0   0.1193590140d0
  Ag   0.4999992304d0   0.1333331734d0   0.1193590140d0
  Ag   0.4999992304d0   0.3333329335d0   0.1193590140d0
  Ag   0.4999992304d0   0.5333326936d0   0.1193590140d0
  Ag   0.4999992304d0   0.7333324537d0   0.1193590140d0
  Ag   0.4999992304d0   0.9333322139d0   0.1193590140d0
  Ag   0.6999988456d0   0.1333331734d0   0.1193590140d0
  Ag   0.6999988456d0   0.3333329335d0   0.1193590140d0
  Ag   0.6999988456d0   0.5333326936d0   0.1193590140d0
  Ag   0.6999988456d0   0.7333324537d0   0.1193590140d0
  Ag   0.6999988456d0   0.9333322139d0   0.1193590140d0
  Ag   0.8999984608d0   0.1333331734d0   0.1193590140d0
  Ag   0.8999984608d0   0.3333329335d0   0.1193590140d0
  Ag   0.8999984608d0   0.5333326936d0   0.1193590140d0
  Ag   0.8999984608d0   0.7333324537d0   0.1193590140d0
  Ag   0.8999984608d0   0.9333322139d0   0.1193590140d0
  Ag   0.1999998076d0   0.1666664668d0   0.2187176114d0
  Ag   0.1999998076d0   0.3666662269d0   0.2187176114d0
  Ag   0.1999998076d0   0.5666659870d0   0.2187176114d0
  Ag   0.1999998076d0   0.7666657471d0   0.2187176114d0
  Ag   0.1999998076d0   0.9666655072d0   0.2187176114d0
  Ag   0.3999994228d0   0.1666664668d0   0.2187176114d0
  Ag   0.3999994228d0   0.3666662269d0   0.2187176114d0
  Ag   0.3999994228d0   0.5666659870d0   0.2187176114d0
  Ag   0.3999994228d0   0.7666657471d0   0.2187176114d0
  Ag   0.3999994228d0   0.9666655072d0   0.2187176114d0
  Ag   0.5999990380d0   0.1666664668d0   0.2187176114d0
  Ag   0.5999990380d0   0.3666662269d0   0.2187176114d0
  Ag   0.5999990380d0   0.5666659870d0   0.2187176114d0
  Ag   0.5999990380d0   0.7666657471d0   0.2187176114d0
  Ag   0.5999990380d0   0.9666655072d0   0.2187176114d0
  Ag   0.7999986532d0   0.1666664668d0   0.2187176114d0
  Ag   0.7999986532d0   0.3666662269d0   0.2187176114d0
  Ag   0.7999986532d0   0.5666659870d0   0.2187176114d0
  Ag   0.7999986532d0   0.7666657471d0   0.2187176114d0
  Ag   0.7999986532d0   0.9666655072d0   0.2187176114d0
  Ag   0.9999982683d0   0.1666664668d0   0.2187176114d0
  Ag   0.9999982683d0   0.3666662269d0   0.2187176114d0
  Ag   0.9999982683d0   0.5666659870d0   0.2187176114d0
  Ag   0.9999982683d0   0.7666657471d0   0.2187176114d0
  Ag   0.9999982683d0   0.9666655072d0   0.2187176114d0
  Ag   0.1999998076d0   0.0999998801d0   0.3185696101d0 
  Ag   0.1999998076d0   0.2999996402d0   0.3185696101d0 
  Ag   0.1999998076d0   0.4999994003d0   0.3185696101d0 
  Ag   0.1999998076d0   0.6999991604d0   0.3185696101d0 
  Ag   0.1999998076d0   0.8999989205d0   0.3185696101d0 
  Ag   0.3999994228d0   0.0999998801d0   0.3185696101d0 
  Ag   0.3999994228d0   0.2999996402d0   0.3185696101d0 
  Ag   0.3999994228d0   0.4999994003d0   0.3185696101d0 
  Ag   0.3999994228d0   0.6999991604d0   0.3185696101d0 
  Ag   0.3999994228d0   0.8999989205d0   0.3185696101d0 
  Ag   0.5999990380d0   0.0999998801d0   0.3185696101d0 
  Ag   0.5999990380d0   0.2999996402d0   0.3185696101d0 
  Ag   0.5999990380d0   0.4999994003d0   0.3185696101d0 
  Ag   0.5999990380d0   0.6999991604d0   0.3185696101d0 
  Ag   0.5999990380d0   0.8999989205d0   0.3185696101d0 
  Ag   0.7999986532d0   0.0999998801d0   0.3185696101d0 
  Ag   0.7999986532d0   0.2999996402d0   0.3185696101d0 
  Ag   0.7999986532d0   0.4999994003d0   0.3185696101d0 
  Ag   0.7999986532d0   0.6999991604d0   0.3185696101d0 
  Ag   0.7999986532d0   0.8999989205d0   0.3185696101d0 
  Ag   0.9999982683d0   0.0999998801d0   0.3185696101d0 
  Ag   0.9999982683d0   0.2999996402d0   0.3185696101d0 
  Ag   0.9999982683d0   0.4999994003d0   0.3185696101d0 
  Ag   0.9999982683d0   0.6999991604d0   0.3185696101d0 
  Ag   0.9999982683d0   0.8999989205d0   0.3185696101d0 

K_POINTS {automatic}
 4 2 1 1 1 0
