&CONTROL
   prefix = 'ptcda'
   calculation = 'scf'
   restart_mode = 'from_scratch'
   wf_collect = .true.
   tstress = .false.
   tprnfor = .false.
   outdir = './'
   wfcdir = './'
   pseudo_dir = './'
!   nstep = 2000
/

&SYSTEM
   ibrav = 0
  celldm(1)=5.5578735050d0
   nat = 226 
   ntyp = 4
   ecutwfc = 60.0
  occupations='smearing'
  smearing='mv'
  degauss=0.03d0
/

&ELECTRONS
   electron_maxstep = 200
   conv_thr = 1.0d-8
   mixing_mode = 'plain'
   mixing_beta = 0.7
   mixing_ndim = 8
   diagonalization = 'david'
   diago_david_ndim = 4
   diago_full_acc = .true.
/

!&IONS
!   ion_dynamics = 'bfgs'
!/
!
!&CELL
!   cell_dynamics = 'bfgs'
!   cell_dofree = '2Dxy'
!/

CELL_PARAMETERS alat
  5.000000000000d0  0.000000000000d0  0.000000000000d0
  0.000000000000d0  8.660263166840d0  0.000000000000d0
  0.000000000000d0  0.000000000000d0  8.160212165516d0

ATOMIC_SPECIES
  C 12.010700d0 C.UPF
  H 1.007940d0 H.UPF
  O 15.999400d0 O.UPF
  Au 196.967000d0 Au.UPF
  
  ATOMIC_POSITIONS {crystal}
C        0.511525405   0.607324224   0.439519611
C        0.506169498   0.552583710   0.439445439
C        0.587203692   0.519283437   0.439412323
C        0.752024384   0.508093853   0.439067979
C        0.675150537   0.540062850   0.439686797
C        0.169934611   0.571158616   0.437897029
C        0.251972534   0.538159074   0.438551541
C        0.339351934   0.561150970   0.438665913
C        0.348398948   0.616365326   0.438401303
C        0.267555109   0.650354761   0.437784713
C        0.434140773   0.638812224   0.438944731
C        0.418506416   0.528620000   0.439163698
C        0.839072214   0.813628627   0.437975127
C        0.903425451   0.857802828   0.438619588
C        0.871422253   0.910104438   0.438813034
C        0.776967307   0.920214290   0.438480620
C        0.711085734   0.876843753   0.437750128
C        0.745717022   0.971486150   0.439024981
C        0.806760397   0.013225749   0.439646199
C        0.900689099   0.005264453   0.439650497
C        0.934485922   0.952754688   0.439393600
C        0.029645463   0.941775691   0.439725683
C        0.057900821   0.889403888   0.439781592
C        0.996072154   0.847970403   0.439238274
C        0.965029575   0.048964514   0.439645826
C        0.060139331   0.038039947   0.439349385
C        0.094008468   0.985530814   0.439712791
C        0.122999368   0.080789811   0.438738670
C        0.090745641   0.133038780   0.438454470
C       -0.001934903   0.142795789   0.439072969
C        0.936460218   0.101293807   0.439692616
C        0.188015803   0.977712769   0.439830179
C        0.248888046   0.019557905   0.439190896
C        0.217486440   0.070814362   0.438512236
C        0.154732163   0.177374568   0.437809638
C        0.283051578   0.114369970   0.437790880
C        0.576415523   0.463628234   0.438918027
C        0.488725864   0.439674282   0.439275102
C        0.655468264   0.431038964   0.438303628
C        0.742956761   0.453956729   0.438244649
C        0.483101853   0.384941108   0.439245427
C        0.560381367   0.353408548   0.438536642
C        0.646129820   0.375849201   0.437995864
C        0.824748957   0.420758889   0.437755558
C        0.726668769   0.341708288   0.437512425
C        0.407763945   0.472966612   0.439468070
C        0.319925281   0.452096861   0.439710265
C        0.243064730   0.484038048   0.439234583
H        0.577185400   0.626647712   0.439959774
H        0.819801136   0.525108051   0.439306917
H        0.685445945   0.582221233   0.440425603
H        0.439938266   0.681298889   0.438906770
H        0.672877600   0.978491491   0.438928284
H        0.779200352   0.052684306   0.440068561
H        0.129736803   0.879823730   0.440188013
H        0.019690042   0.807553474   0.439262820
H        0.974336378   0.183180193   0.439100329
H        0.864585493   0.110742627   0.440152466
H        0.215725533   0.938289091   0.440373444
H        0.321730543   0.012634319   0.439184388
H        0.554627897   0.310913043   0.438473862
H        0.309716912   0.409935598   0.440231617
H        0.175334151   0.466980722   0.439404496
H        0.417388414   0.365689366   0.439804023
O        0.183097554   0.625596810   0.437629969
O        0.092755404   0.555381512   0.437558842
O        0.268501777   0.697740742   0.437417858
O        0.746360335   0.826026258   0.437575686
O        0.247471758   0.165145020   0.437570159
O        0.859325892   0.767806804   0.437771166
O        0.629480676   0.881643663   0.437294091
O        0.134141256   0.223155892   0.437507589
O        0.364686679   0.109794997   0.437388606
O        0.811215944   0.366325325   0.437585106
O        0.902049773   0.436311643   0.437546321
O        0.725301442   0.294321001   0.437125374
  Au   0.1000000001d0   0.0333333333d0   0.1000581700d0
  Au   0.1000000001d0   0.2333333333d0   0.1000581700d0
  Au   0.1000000001d0   0.4333333333d0   0.1000581700d0
  Au   0.1000000001d0   0.6333333333d0   0.1000581700d0
  Au   0.1000000001d0   0.8333333333d0   0.1000581700d0
  Au   0.3000000001d0   0.0333333333d0   0.1000581700d0
  Au   0.3000000001d0   0.2333333333d0   0.1000581700d0
  Au   0.3000000001d0   0.4333333333d0   0.1000581700d0
  Au   0.3000000001d0   0.6333333333d0   0.1000581700d0
  Au   0.3000000001d0   0.8333333333d0   0.1000581700d0
  Au   0.5000000001d0   0.0333333333d0   0.1000581700d0
  Au   0.5000000001d0   0.2333333333d0   0.1000581700d0
  Au   0.5000000001d0   0.4333333333d0   0.1000581700d0
  Au   0.5000000001d0   0.6333333333d0   0.1000581700d0
  Au   0.5000000001d0   0.8333333333d0   0.1000581700d0
  Au   0.7000000001d0   0.0333333333d0   0.1000581700d0
  Au   0.7000000001d0   0.2333333333d0   0.1000581700d0
  Au   0.7000000001d0   0.4333333333d0   0.1000581700d0
  Au   0.7000000001d0   0.6333333333d0   0.1000581700d0
  Au   0.7000000001d0   0.8333333333d0   0.1000581700d0
  Au   0.9000000001d0   0.0333333333d0   0.1000581700d0
  Au   0.9000000001d0   0.2333333333d0   0.1000581700d0
  Au   0.9000000001d0   0.4333333333d0   0.1000581700d0
  Au   0.9000000001d0   0.6333333333d0   0.1000581700d0
  Au   0.9000000001d0   0.8333333333d0   0.1000581700d0
  Au  -0.0000000001d0   0.0666666667d0   0.2001163390d0
  Au  -0.0000000001d0   0.2666666667d0   0.2001163390d0
  Au  -0.0000000001d0   0.4666666667d0   0.2001163390d0
  Au  -0.0000000001d0   0.6666666667d0   0.2001163390d0
  Au  -0.0000000001d0   0.8666666667d0   0.2001163390d0
  Au   0.1999999999d0   0.0666666667d0   0.2001163390d0
  Au   0.1999999999d0   0.2666666667d0   0.2001163390d0
  Au   0.1999999999d0   0.4666666667d0   0.2001163390d0
  Au   0.1999999999d0   0.6666666667d0   0.2001163390d0
  Au   0.1999999999d0   0.8666666667d0   0.2001163390d0
  Au   0.3999999999d0   0.0666666667d0   0.2001163390d0
  Au   0.3999999999d0   0.2666666667d0   0.2001163390d0
  Au   0.3999999999d0   0.4666666667d0   0.2001163390d0
  Au   0.3999999999d0   0.6666666667d0   0.2001163390d0
  Au   0.3999999999d0   0.8666666667d0   0.2001163390d0
  Au   0.5999999999d0   0.0666666667d0   0.2001163390d0
  Au   0.5999999999d0   0.2666666667d0   0.2001163390d0
  Au   0.5999999999d0   0.4666666667d0   0.2001163390d0
  Au   0.5999999999d0   0.6666666667d0   0.2001163390d0
  Au   0.5999999999d0   0.8666666667d0   0.2001163390d0
  Au   0.7999999999d0   0.0666666667d0   0.2001163390d0
  Au   0.7999999999d0   0.2666666667d0   0.2001163390d0
  Au   0.7999999999d0   0.4666666667d0   0.2001163390d0
  Au   0.7999999999d0   0.6666666667d0   0.2001163390d0
  Au   0.7999999999d0   0.8666666667d0   0.2001163390d0
  Au   0.0000000000d0   0.1999995036d0   0.3007739160d0
  Au   0.0000000000d0   0.3999995036d0   0.3007739160d0
  Au   0.0000000000d0   0.5999995036d0   0.3007739160d0
  Au   0.0000000000d0   0.7999995036d0   0.3007739160d0
  Au   0.0000000000d0   0.9999995036d0   0.3007739160d0
  Au   0.2000000000d0   0.1999995036d0   0.3007739160d0
  Au   0.2000000000d0   0.3999995036d0   0.3007739160d0
  Au   0.2000000000d0   0.5999995036d0   0.3007739160d0
  Au   0.2000000000d0   0.7999995036d0   0.3007739160d0
  Au   0.2000000000d0   0.9999995036d0   0.3007739160d0
  Au   0.4000000000d0   0.1999995036d0   0.3007739160d0
  Au   0.4000000000d0   0.3999995036d0   0.3007739160d0
  Au   0.4000000000d0   0.5999995036d0   0.3007739160d0
  Au   0.4000000000d0   0.7999995036d0   0.3007739160d0
  Au   0.4000000000d0   0.9999995036d0   0.3007739160d0
  Au   0.6000000000d0   0.1999995036d0   0.3007739160d0
  Au   0.6000000000d0   0.3999995036d0   0.3007739160d0
  Au   0.6000000000d0   0.5999995036d0   0.3007739160d0
  Au   0.6000000000d0   0.7999995036d0   0.3007739160d0
  Au   0.6000000000d0   0.9999995036d0   0.3007739160d0
  Au   0.8000000000d0   0.1999995036d0   0.3007739160d0
  Au   0.8000000000d0   0.3999995036d0   0.3007739160d0
  Au   0.8000000000d0   0.5999995036d0   0.3007739160d0
  Au   0.8000000000d0   0.7999995036d0   0.3007739160d0
  Au   0.8000000000d0   0.9999995036d0   0.3007739160d0
  Au   0.0000000001d0   0.1333333333d0   0.1000581700d0
  Au   0.0000000001d0   0.3333333333d0   0.1000581700d0
  Au   0.0000000001d0   0.5333333333d0   0.1000581700d0
  Au   0.0000000001d0   0.7333333333d0   0.1000581700d0
  Au   0.0000000001d0   0.9333333333d0   0.1000581700d0
  Au   0.2000000001d0   0.1333333333d0   0.1000581700d0
  Au   0.2000000001d0   0.3333333333d0   0.1000581700d0
  Au   0.2000000001d0   0.5333333333d0   0.1000581700d0
  Au   0.2000000001d0   0.7333333333d0   0.1000581700d0
  Au   0.2000000001d0   0.9333333333d0   0.1000581700d0
  Au   0.4000000001d0   0.1333333333d0   0.1000581700d0
  Au   0.4000000001d0   0.3333333333d0   0.1000581700d0
  Au   0.4000000001d0   0.5333333333d0   0.1000581700d0
  Au   0.4000000001d0   0.7333333333d0   0.1000581700d0
  Au   0.4000000001d0   0.9333333333d0   0.1000581700d0
  Au   0.6000000001d0   0.1333333333d0   0.1000581700d0
  Au   0.6000000001d0   0.3333333333d0   0.1000581700d0
  Au   0.6000000001d0   0.5333333333d0   0.1000581700d0
  Au   0.6000000001d0   0.7333333333d0   0.1000581700d0
  Au   0.6000000001d0   0.9333333333d0   0.1000581700d0
  Au   0.8000000001d0   0.1333333333d0   0.1000581700d0
  Au   0.8000000001d0   0.3333333333d0   0.1000581700d0
  Au   0.8000000001d0   0.5333333333d0   0.1000581700d0
  Au   0.8000000001d0   0.7333333333d0   0.1000581700d0
  Au   0.8000000001d0   0.9333333333d0   0.1000581700d0
  Au   0.0999999999d0   0.1666666667d0   0.2001163390d0
  Au   0.0999999999d0   0.3666666667d0   0.2001163390d0
  Au   0.0999999999d0   0.5666666667d0   0.2001163390d0
  Au   0.0999999999d0   0.7666666667d0   0.2001163390d0
  Au   0.0999999999d0   0.9666666667d0   0.2001163390d0
  Au   0.2999999999d0   0.1666666667d0   0.2001163390d0
  Au   0.2999999999d0   0.3666666667d0   0.2001163390d0
  Au   0.2999999999d0   0.5666666667d0   0.2001163390d0
  Au   0.2999999999d0   0.7666666667d0   0.2001163390d0
  Au   0.2999999999d0   0.9666666667d0   0.2001163390d0
  Au   0.4999999999d0   0.1666666667d0   0.2001163390d0
  Au   0.4999999999d0   0.3666666667d0   0.2001163390d0
  Au   0.4999999999d0   0.5666666667d0   0.2001163390d0
  Au   0.4999999999d0   0.7666666667d0   0.2001163390d0
  Au   0.4999999999d0   0.9666666667d0   0.2001163390d0
  Au   0.6999999999d0   0.1666666667d0   0.2001163390d0
  Au   0.6999999999d0   0.3666666667d0   0.2001163390d0
  Au   0.6999999999d0   0.5666666667d0   0.2001163390d0
  Au   0.6999999999d0   0.7666666667d0   0.2001163390d0
  Au   0.6999999999d0   0.9666666667d0   0.2001163390d0
  Au   0.8999999999d0   0.1666666667d0   0.2001163390d0
  Au   0.8999999999d0   0.3666666667d0   0.2001163390d0
  Au   0.8999999999d0   0.5666666667d0   0.2001163390d0
  Au   0.8999999999d0   0.7666666667d0   0.2001163390d0
  Au   0.8999999999d0   0.9666666667d0   0.2001163390d0
  Au   0.1000000000d0   0.0999995036d0   0.3007739160d0
  Au   0.1000000000d0   0.2999995036d0   0.3007739160d0
  Au   0.1000000000d0   0.4999995036d0   0.3007739160d0
  Au   0.1000000000d0   0.6999995036d0   0.3007739160d0
  Au   0.1000000000d0   0.8999995036d0   0.3007739160d0
  Au   0.3000000000d0   0.0999995036d0   0.3007739160d0
  Au   0.3000000000d0   0.2999995036d0   0.3007739160d0
  Au   0.3000000000d0   0.4999995036d0   0.3007739160d0
  Au   0.3000000000d0   0.6999995036d0   0.3007739160d0
  Au   0.3000000000d0   0.8999995036d0   0.3007739160d0
  Au   0.5000000000d0   0.0999995036d0   0.3007739160d0
  Au   0.5000000000d0   0.2999995036d0   0.3007739160d0
  Au   0.5000000000d0   0.4999995036d0   0.3007739160d0
  Au   0.5000000000d0   0.6999995036d0   0.3007739160d0
  Au   0.5000000000d0   0.8999995036d0   0.3007739160d0
  Au   0.7000000000d0   0.0999995036d0   0.3007739160d0
  Au   0.7000000000d0   0.2999995036d0   0.3007739160d0
  Au   0.7000000000d0   0.4999995036d0   0.3007739160d0
  Au   0.7000000000d0   0.6999995036d0   0.3007739160d0
  Au   0.7000000000d0   0.8999995036d0   0.3007739160d0
  Au   0.9000000000d0   0.0999995036d0   0.3007739160d0
  Au   0.9000000000d0   0.2999995036d0   0.3007739160d0
  Au   0.9000000000d0   0.4999995036d0   0.3007739160d0
  Au   0.9000000000d0   0.6999995036d0   0.3007739160d0
  Au   0.9000000000d0   0.8999995036d0   0.3007739160d0

K_POINTS {automatic}
 4 2 1 1 1 0
